TCS_Benchmarks/redos_fix/regexlib1_output_distinct_1726_1725_4_0.smt2
(set-logic QF_S)
(declare-const x String)
(assert (str.in.re x (re.inter (re.+  (re.++ (re.+  (re.union (re.range "\u{30}" "\u{39}") (re.union (re.range "\u{41}" "\u{5a}") (re.union (re.range "\u{61}" "\u{7a}")  (str.to.re "\u{5f}")))) ) (re.++ (re.* (re.union (re.range "\u{09}" "\u{0d}") (re.range "\u{20}" "\u{20}") (re.range "\u{85}" "\u{85}") (re.range "\u{a0}" "\u{a0}")) ) (re.++ (re.*  (str.to.re "\u{2c}") ) (re.* (re.union (re.range "\u{09}" "\u{0d}") (re.range "\u{20}" "\u{20}") (re.range "\u{85}" "\u{85}") (re.range "\u{a0}" "\u{a0}")) )))) ) (re.+  (re.union (re.range "\u{30}" "\u{39}") (re.union (re.range "\u{41}" "\u{5a}") (re.union (re.range "\u{61}" "\u{7a}")  (str.to.re "\u{5f}")))) ) )))
(check-sat)
(get-model)