TCS_Benchmarks/redos_fix/regexlib1_output_distinct_1726_1725_4_0.txt
([0-9A-Za-z_]+\s*,*\s*)+
[0-9A-Za-z_]+